NAME : lin105.tsp
COMMENT : Optimal tour for lin105.tsp
TYPE : TOUR
DIMENSION : 105
Total Length: 14979.193725037267
TOUR_SECTION
1
2
6
7
10
11
15
103
21
22
29
32
31
30
28
23
20
19
16
17
18
25
26
24
27
33
36
37
42
41
43
46
52
53
58
57
54
51
47
44
104
40
49
45
48
50
55
56
59
105
67
68
71
78
82
83
84
79
77
72
64
62
63
70
69
74
75
81
73
76
80
86
85
91
92
96
97
101
102
93
98
99
89
90
95
100
94
88
87
66
65
61
60
39
38
35
34
14
13
4
5
9
8
12
3
-1
EOF
